\ENCODING=ISO-8859-1
\Problem name: IloCplex

Minimize
 obj: x_0_1 + 2.2360680103302 x_0_2 + 2.2360680103302 x_0_3 + 2 x_0_4
      + 1.41421353816986 x_1_2 + 2 x_1_3 + 2.2360680103302 x_1_4
      + 1.41421353816986 x_2_3 + 2.2360680103302 x_2_4 + x_3_4
Subject To
 (1):   x_0_1 + x_0_2 + x_0_3 + x_0_4 <= 8
 (2_1): x_0_1 + x_1_2 + x_1_3 + x_1_4  = 2
 (2_2): x_0_2 + x_1_2 + x_2_3 + x_2_4  = 2
 (2_3): x_0_3 + x_1_3 + x_2_3 + x_3_4  = 2
 (2_4): x_0_4 + x_1_4 + x_2_4 + x_3_4  = 2
Bounds
 0 <= x_0_1 <= 1
 0 <= x_0_2 <= 1
 0 <= x_0_3 <= 1
 0 <= x_0_4 <= 1
 0 <= x_1_2 <= 1
 0 <= x_1_3 <= 1
 0 <= x_1_4 <= 1
 0 <= x_2_3 <= 1
 0 <= x_2_4 <= 1
 0 <= x_3_4 <= 1
Binaries
 x_0_1  x_0_2  x_0_3  x_0_4  x_1_2  x_1_3  x_1_4  x_2_3  x_2_4  x_3_4 
End
